/* Cplex Data generated on 2017-12-15 */

k = 8;

b = 4;

AtomicConstraints = {
	 <2, 3>,
	 <6, 3>,
	 <7, 1>,
	 <7, 2>,
	 <7, 3>,
	 <7, 6>,
	 <7, 8>,
	 <5, 2>,
	 <5, 3>,
	 <4, 3>,
	 <8, 2>,
	 <8, 3>,
	 <8, 6>,
	 }; 

SoftAtomicConstraints = {
	 <1, 3>,
	 <5, 4>,
	 <7, 5>,
	 }; 

DisjunctiveConstraints = {
	 <7, 1, 7, 5>,
	 <5, 2, 5, 6>,
	 <4, 3, 4, 7>,
	 <8, 2, 8, 6>,
	 }; 

DirectSuccessors = {
	 }; 

